peakDumbCharging = 33300; 
Machine = anon_enum(16); 
machineSpeed = [3700,3700,3700,3700,3700,3700,3700,3700,3700,3700,3700,3700,3700,3700,3700,3700]; 
machineLoad = [3700,3700,3700,3700,3700,3700,3700,3700,3700,3700,3700,3700,3700,3700,3700,3700]; 
Car = anon_enum(34); 
demandCar = [6840,4720,31040,3200,7280,16880,2880,20280,10920,24520,2160,9360,4440,10600,7800,8400,8760,3120,15960,9640,19160,9080,4640,9360,11800,520,6080,2920,12000,2960,19640,33360,5680,11560]; 
arrivalCar = [84,71,71,70,68,65,64,64,64,61,59,59,58,57,57,56,56,54,54,53,53,52,52,51,49,49,49,48,46,46,45,45,42,40]; 
departureCar = [87,73,81,72,71,71,66,75,68,73,61,64,61,61,62,60,59,56,65,58,65,56,55,55,54,50,53,50,54,48,54,61,46,44]; 
